NAME: random_50_7
TYPE: TSP
COMMENT: random_50_7
DIMENSION: 50
EDGE_WEIGHT_TYPE: EUC_2D
NODE_COORD_SECTION
1 284 284
2 8 177
3 378 414
4 50 286
5 330 443
6 45 109
7 414 428
8 343 172
9 387 318
10 153 84
11 137 186
12 290 345
13 264 371
14 401 343
15 78 69
16 369 289
17 298 22
18 209 289
19 317 180
20 256 110
21 207 273
22 323 472
23 353 284
24 153 154
25 268 261
26 304 116
27 305 38
28 107 25
29 376 286
30 245 326
31 360 374
32 314 451
33 332 369
34 236 204
35 182 428
36 446 132
37 374 325
38 266 241
39 480 7
40 461 78
41 170 272
42 333 209
43 328 72
44 281 129
45 400 212
46 371 8
47 325 419
48 238 45
49 428 482
50 142 437
